(set-logic QF_NRA)
(set-info :source |Benchmarks generated from hycomp (https://es-static.fbk.eu/tools/hycomp/). BMC instances of non-linear hybrid automata taken from: Alessandro Cimatti, Sergio Mover, Stefano Tonetta, A quantifier-free SMT encoding of non-linear hybrid automata, FMCAD 2012 and Alessandro Cimatti, Sergio Mover, Stefano Tonetta, Quantier-free encoding of invariants for Hybrid Systems, Formal Methods in System Design. This instance solves a BMC problem of depth 2 and uses the quantifier free encoding with equivalences and lemmas encoding. Contacts: Sergio Mover (mover@fbk.eu), Stefano Tonetta (tonettas@fbk.eu), Alessandro Cimatti (cimatti@fbk.eu).|)
(set-info :smt-lib-version 2.0)
(set-info :category "industrial")
(set-info :status unsat)
;; MathSAT API call trace
;; generated on Mon Mar 19 10:42:30 2012
(declare-fun b.delta__AT2 () Real)
(declare-fun b.counter.0__AT2 () Bool)
(declare-fun b.speed_x__AT1 () Real)
(declare-fun b.x__AT2 () Real)
(declare-fun b.EVENT.0__AT2 () Bool)
(declare-fun b.event_is_timed__AT2 () Bool)
(declare-fun b.counter.1__AT2 () Bool)
(declare-fun b.time__AT1 () Real)
(declare-fun b.EVENT.1__AT2 () Bool)
(declare-fun b.counter.2__AT2 () Bool)
(declare-fun b.x__AT1 () Real)
(declare-fun b.event_is_timed__AT1 () Bool)
(declare-fun b.counter.3__AT2 () Bool)
(declare-fun b.counter.0__AT1 () Bool)
(declare-fun b.EVENT.1__AT0 () Bool)
(declare-fun b.speed_loss__AT0 () Real)
(declare-fun b.bool_atom__AT2 () Bool)
(declare-fun b.counter.1__AT1 () Bool)
(declare-fun b.speed_x__AT0 () Real)
(declare-fun b.speed_x__AT2 () Real)
(declare-fun b.counter.2__AT1 () Bool)
(declare-fun b.time__AT0 () Real)
(declare-fun b.speed_y__AT2 () Real)
(declare-fun b.counter.2__AT0 () Bool)
(declare-fun b.counter.3__AT1 () Bool)
(declare-fun b.bool_atom__AT1 () Bool)
(declare-fun b.x__AT0 () Real)
(declare-fun b.speed_y__AT1 () Real)
(declare-fun b.delta__AT1 () Real)
(declare-fun b.bool_atom__AT0 () Bool)
(declare-fun b.y__AT0 () Real)
(declare-fun b.EVENT.1__AT1 () Bool)
(declare-fun b.EVENT.0__AT1 () Bool)
(declare-fun b.counter.0__AT0 () Bool)
(declare-fun b.delta__AT0 () Real)
(declare-fun b.counter.1__AT0 () Bool)
(declare-fun b.y__AT1 () Real)
(declare-fun b.EVENT.0__AT0 () Bool)
(declare-fun b.speed_y__AT0 () Real)
(declare-fun b.event_is_timed__AT0 () Bool)
(declare-fun b.time__AT2 () Real)
(declare-fun b.y__AT2 () Real)
(declare-fun b.counter.3__AT0 () Bool)
(assert (let ((.def_669 (* (- 1.0) b.speed_x__AT2)))
(let ((.def_670 (* b.speed_x__AT2 .def_669)))
(let ((.def_671 (* (- 1.0) .def_670)))
(let ((.def_699 (* 2.0 .def_671)))
(let ((.def_700 (* b.delta__AT2 .def_699)))
(let ((.def_701 (* 5.0 .def_700)))
(let ((.def_607 (* (- 1.0) b.x__AT2)))
(let ((.def_682 (* b.speed_x__AT2 .def_607)))
(let ((.def_704 (* (- 5.0) .def_682)))
(let ((.def_710 (+ .def_704 .def_701)))
(let ((.def_677 (* b.x__AT2 .def_669)))
(let ((.def_702 (* (- 5.0) .def_677)))
(let ((.def_711 (+ .def_702 .def_710)))
(let ((.def_706 (* (- 49.0) b.delta__AT2)))
(let ((.def_712 (+ .def_706 .def_711)))
(let ((.def_708 (* 5.0 b.speed_y__AT2)))
(let ((.def_713 (+ .def_708 .def_712)))
(let ((.def_732 (<= .def_713 0.0 )))
(let ((.def_733 (not .def_732)))
(let ((.def_683 (* (- 1.0) .def_682)))
(let ((.def_678 (* (- 1.0) .def_677)))
(let ((.def_716 (+ .def_678 .def_683)))
(let ((.def_717 (+ b.speed_y__AT2 .def_716)))
(let ((.def_730 (<= .def_717 0.0 )))
(let ((.def_755 (or .def_730 .def_733)))
(let ((.def_718 (<= 0.0 .def_717)))
(let ((.def_719 (not .def_718)))
(let ((.def_714 (<= 0.0 .def_713)))
(let ((.def_754 (or .def_714 .def_719)))
(let ((.def_756 (and .def_754 .def_755)))
(let ((.def_753 (<= (- (/ 49 10)) .def_670)))
(let ((.def_757 (or .def_753 .def_756)))
(let ((.def_715 (not .def_714)))
(let ((.def_750 (or .def_715 .def_718)))
(let ((.def_731 (not .def_730)))
(let ((.def_749 (or .def_731 .def_732)))
(let ((.def_751 (and .def_749 .def_750)))
(let ((.def_748 (<= .def_670 (- (/ 49 10)))))
(let ((.def_752 (or .def_748 .def_751)))
(let ((.def_758 (and .def_752 .def_757)))
(let ((.def_745 (and .def_730 .def_732)))
(let ((.def_744 (and .def_714 .def_718)))
(let ((.def_746 (or .def_744 .def_745)))
(let ((.def_684 (* b.delta__AT2 .def_683)))
(let ((.def_685 (* 10.0 .def_684)))
(let ((.def_679 (* b.delta__AT2 .def_678)))
(let ((.def_680 (* 10.0 .def_679)))
(let ((.def_691 (+ .def_680 .def_685)))
(let ((.def_668 (* b.delta__AT2 b.delta__AT2)))
(let ((.def_672 (* .def_668 .def_671)))
(let ((.def_673 (* 10.0 .def_672)))
(let ((.def_692 (+ .def_673 .def_691)))
(let ((.def_675 (* (- 49.0) .def_668)))
(let ((.def_693 (+ .def_675 .def_692)))
(let ((.def_666 (* b.speed_y__AT2 b.delta__AT2)))
(let ((.def_667 (* 10.0 .def_666)))
(let ((.def_694 (+ .def_667 .def_693)))
(let ((.def_653 (* b.x__AT2 .def_607)))
(let ((.def_687 (* (- 10.0) .def_653)))
(let ((.def_695 (+ .def_687 .def_694)))
(let ((.def_689 (* 10.0 b.y__AT2)))
(let ((.def_696 (+ .def_689 .def_695)))
(let ((.def_724 (<= .def_696 0.0 )))
(let ((.def_738 (not .def_724)))
(let ((.def_722 (<= b.y__AT2 .def_653)))
(let ((.def_739 (or .def_722 .def_738)))
(let ((.def_654 (<= .def_653 b.y__AT2)))
(let ((.def_736 (not .def_654)))
(let ((.def_697 (<= 0.0 .def_696)))
(let ((.def_737 (or .def_697 .def_736)))
(let ((.def_740 (and .def_737 .def_739)))
(let ((.def_734 (or .def_731 .def_733)))
(let ((.def_735 (not .def_734)))
(let ((.def_741 (or .def_735 .def_740)))
(let ((.def_726 (not .def_697)))
(let ((.def_727 (or .def_654 .def_726)))
(let ((.def_723 (not .def_722)))
(let ((.def_725 (or .def_723 .def_724)))
(let ((.def_728 (and .def_725 .def_727)))
(let ((.def_720 (or .def_715 .def_719)))
(let ((.def_721 (not .def_720)))
(let ((.def_729 (or .def_721 .def_728)))
(let ((.def_742 (and .def_729 .def_741)))
(let ((.def_698 (and .def_654 .def_697)))
(let ((.def_743 (and .def_698 .def_742)))
(let ((.def_747 (and .def_743 .def_746)))
(let ((.def_759 (and .def_747 .def_758)))
(let ((.def_70 (<= b.speed_loss__AT0 (/ 1 2))))
(let ((.def_67 (<= (/ 1 10) b.speed_loss__AT0)))
(let ((.def_71 (and .def_67 .def_70)))
(let ((.def_760 (and .def_71 .def_759)))
(let ((.def_282 (not b.counter.0__AT1)))
(let ((.def_272 (not b.counter.1__AT1)))
(let ((.def_658 (and .def_272 .def_282)))
(let ((.def_661 (or b.counter.3__AT1 .def_658)))
(let ((.def_277 (not b.counter.2__AT1)))
(let ((.def_659 (and .def_277 .def_658)))
(let ((.def_291 (not b.counter.3__AT1)))
(let ((.def_660 (or .def_291 .def_659)))
(let ((.def_662 (and .def_660 .def_661)))
(let ((.def_655 (and .def_71 .def_654)))
(let ((.def_650 (not b.EVENT.0__AT2)))
(let ((.def_648 (not b.EVENT.1__AT2)))
(let ((.def_651 (or .def_648 .def_650)))
(let ((.def_6 (not b.counter.0__AT2)))
(let ((.def_4 (not b.counter.1__AT2)))
(let ((.def_641 (or .def_4 .def_6)))
(let ((.def_645 (or b.counter.3__AT2 .def_641)))
(let ((.def_642 (or b.counter.2__AT2 .def_641)))
(let ((.def_9 (not b.counter.2__AT2)))
(let ((.def_640 (or .def_6 .def_9)))
(let ((.def_643 (and .def_640 .def_642)))
(let ((.def_12 (not b.counter.3__AT2)))
(let ((.def_644 (or .def_12 .def_643)))
(let ((.def_646 (and .def_644 .def_645)))
(let ((.def_652 (and .def_646 .def_651)))
(let ((.def_656 (and .def_652 .def_655)))
(let ((.def_635 (<= 0.0 b.delta__AT1)))
(let ((.def_369 (not b.EVENT.0__AT1)))
(let ((.def_367 (not b.EVENT.1__AT1)))
(let ((.def_479 (and .def_367 .def_369)))
(let ((.def_481 (not .def_479)))
(let ((.def_636 (or .def_481 .def_635)))
(let ((.def_637 (or b.EVENT.1__AT1 .def_636)))
(let ((.def_519 (= b.bool_atom__AT1 b.bool_atom__AT2)))
(let ((.def_515 (= b.counter.0__AT2 b.counter.0__AT1)))
(let ((.def_513 (= b.counter.1__AT2 b.counter.1__AT1)))
(let ((.def_511 (= b.counter.2__AT2 b.counter.2__AT1)))
(let ((.def_510 (= b.counter.3__AT2 b.counter.3__AT1)))
(let ((.def_512 (and .def_510 .def_511)))
(let ((.def_514 (and .def_512 .def_513)))
(let ((.def_516 (and .def_514 .def_515)))
(let ((.def_631 (and .def_516 .def_519)))
(let ((.def_632 (or .def_481 .def_631)))
(let ((.def_633 (or b.EVENT.1__AT1 .def_632)))
(let ((.def_619 (* (- 10.0) b.y__AT2)))
(let ((.def_385 (* b.delta__AT1 b.delta__AT1)))
(let ((.def_392 (* (- 49.0) .def_385)))
(let ((.def_623 (+ .def_392 .def_619)))
(let ((.def_383 (* b.speed_y__AT1 b.delta__AT1)))
(let ((.def_384 (* 10.0 .def_383)))
(let ((.def_624 (+ .def_384 .def_623)))
(let ((.def_406 (* 10.0 b.y__AT1)))
(let ((.def_625 (+ .def_406 .def_624)))
(let ((.def_626 (= .def_625 0.0 )))
(let ((.def_614 (* (- 5.0) b.speed_y__AT2)))
(let ((.def_423 (* (- 49.0) b.delta__AT1)))
(let ((.def_615 (+ .def_423 .def_614)))
(let ((.def_425 (* 5.0 b.speed_y__AT1)))
(let ((.def_616 (+ .def_425 .def_615)))
(let ((.def_617 (= .def_616 0.0 )))
(let ((.def_606 (* b.speed_x__AT1 b.delta__AT1)))
(let ((.def_610 (+ .def_607 .def_606)))
(let ((.def_611 (+ b.x__AT1 .def_610)))
(let ((.def_612 (= .def_611 0.0 )))
(let ((.def_505 (= b.speed_x__AT1 b.speed_x__AT2)))
(let ((.def_613 (and .def_505 .def_612)))
(let ((.def_618 (and .def_613 .def_617)))
(let ((.def_627 (and .def_618 .def_626)))
(let ((.def_628 (or .def_481 .def_627)))
(let ((.def_502 (= b.y__AT1 b.y__AT2)))
(let ((.def_499 (= b.x__AT1 b.x__AT2)))
(let ((.def_600 (and .def_499 .def_502)))
(let ((.def_601 (and .def_505 .def_600)))
(let ((.def_508 (= b.speed_y__AT1 b.speed_y__AT2)))
(let ((.def_602 (and .def_508 .def_601)))
(let ((.def_597 (= b.delta__AT1 0.0 )))
(let ((.def_598 (and .def_479 .def_597)))
(let ((.def_599 (not .def_598)))
(let ((.def_603 (or .def_599 .def_602)))
(let ((.def_604 (or b.EVENT.1__AT1 .def_603)))
(let ((.def_589 (and .def_505 .def_508)))
(let ((.def_590 (and .def_516 .def_589)))
(let ((.def_591 (or b.bool_atom__AT1 .def_590)))
(let ((.def_565 (or .def_6 b.counter.0__AT1)))
(let ((.def_564 (or b.counter.0__AT2 .def_282)))
(let ((.def_566 (and .def_564 .def_565)))
(let ((.def_567 (and .def_4 .def_566)))
(let ((.def_568 (or b.counter.1__AT1 .def_567)))
(let ((.def_563 (or b.counter.1__AT2 .def_272)))
(let ((.def_569 (and .def_563 .def_568)))
(let ((.def_580 (and .def_9 .def_569)))
(let ((.def_581 (or b.counter.2__AT1 .def_580)))
(let ((.def_575 (and .def_4 .def_282)))
(let ((.def_576 (or b.counter.1__AT1 .def_575)))
(let ((.def_577 (and .def_563 .def_576)))
(let ((.def_578 (and b.counter.2__AT2 .def_577)))
(let ((.def_579 (or .def_277 .def_578)))
(let ((.def_582 (and .def_579 .def_581)))
(let ((.def_583 (and b.counter.3__AT2 .def_582)))
(let ((.def_584 (or b.counter.3__AT1 .def_583)))
(let ((.def_570 (and b.counter.2__AT2 .def_569)))
(let ((.def_571 (or b.counter.2__AT1 .def_570)))
(let ((.def_559 (or b.counter.1__AT2 b.counter.1__AT1)))
(let ((.def_557 (and .def_4 b.counter.0__AT2)))
(let ((.def_558 (or .def_272 .def_557)))
(let ((.def_560 (and .def_558 .def_559)))
(let ((.def_561 (and .def_9 .def_560)))
(let ((.def_562 (or .def_277 .def_561)))
(let ((.def_572 (and .def_562 .def_571)))
(let ((.def_573 (and .def_12 .def_572)))
(let ((.def_574 (or .def_291 .def_573)))
(let ((.def_585 (and .def_574 .def_584)))
(let ((.def_258 (* b.speed_y__AT1 b.speed_y__AT1)))
(let ((.def_256 (* b.speed_x__AT1 b.speed_x__AT1)))
(let ((.def_549 (+ .def_256 .def_258)))
(let ((.def_244 (* (- 1.0) b.speed_loss__AT0)))
(let ((.def_245 (+ 1.0 .def_244)))
(let ((.def_261 (* .def_245 .def_245)))
(let ((.def_550 (* .def_261 .def_549)))
(let ((.def_552 (* (- 1.0) .def_550)))
(let ((.def_546 (* b.speed_y__AT2 b.speed_y__AT2)))
(let ((.def_553 (+ .def_546 .def_552)))
(let ((.def_544 (* b.speed_x__AT2 b.speed_x__AT2)))
(let ((.def_554 (+ .def_544 .def_553)))
(let ((.def_555 (= .def_554 0.0 )))
(let ((.def_537 (* b.speed_y__AT1 .def_245)))
(let ((.def_241 (* (- 2.0) b.x__AT1)))
(let ((.def_242 (* (- 1.0) .def_241)))
(let ((.def_534 (* .def_242 .def_245)))
(let ((.def_535 (* b.speed_x__AT1 .def_534)))
(let ((.def_540 (+ .def_535 .def_537)))
(let ((.def_531 (* (- 2.0) b.x__AT2)))
(let ((.def_532 (* (- 1.0) .def_531)))
(let ((.def_533 (* b.speed_x__AT2 .def_532)))
(let ((.def_541 (+ .def_533 .def_540)))
(let ((.def_542 (+ b.speed_y__AT2 .def_541)))
(let ((.def_543 (= .def_542 0.0 )))
(let ((.def_556 (and .def_543 .def_555)))
(let ((.def_586 (and .def_556 .def_585)))
(let ((.def_530 (not b.bool_atom__AT1)))
(let ((.def_587 (or .def_530 .def_586)))
(let ((.def_243 (* b.speed_x__AT1 .def_242)))
(let ((.def_525 (+ b.speed_y__AT1 .def_243)))
(let ((.def_526 (<= 0.0 .def_525)))
(let ((.def_527 (not .def_526)))
(let ((.def_326 (* (- 1.0) b.x__AT1)))
(let ((.def_372 (* b.x__AT1 .def_326)))
(let ((.def_524 (= b.y__AT1 .def_372)))
(let ((.def_528 (and .def_524 .def_527)))
(let ((.def_529 (= b.bool_atom__AT1 .def_528)))
(let ((.def_588 (and .def_529 .def_587)))
(let ((.def_592 (and .def_588 .def_591)))
(let ((.def_593 (and .def_499 .def_592)))
(let ((.def_594 (and .def_502 .def_593)))
(let ((.def_595 (or .def_479 .def_594)))
(let ((.def_596 (or b.EVENT.1__AT1 .def_595)))
(let ((.def_605 (and .def_596 .def_604)))
(let ((.def_629 (and .def_605 .def_628)))
(let ((.def_486 (= b.time__AT1 b.time__AT2)))
(let ((.def_500 (and .def_486 .def_499)))
(let ((.def_503 (and .def_500 .def_502)))
(let ((.def_506 (and .def_503 .def_505)))
(let ((.def_509 (and .def_506 .def_508)))
(let ((.def_517 (and .def_509 .def_516)))
(let ((.def_520 (and .def_517 .def_519)))
(let ((.def_521 (or .def_367 .def_520)))
(let ((.def_489 (* (- 1.0) b.time__AT2)))
(let ((.def_492 (+ b.delta__AT1 .def_489)))
(let ((.def_493 (+ b.time__AT1 .def_492)))
(let ((.def_494 (= .def_493 0.0 )))
(let ((.def_495 (or .def_481 .def_494)))
(let ((.def_496 (or b.EVENT.1__AT1 .def_495)))
(let ((.def_487 (or .def_479 .def_486)))
(let ((.def_488 (or b.EVENT.1__AT1 .def_487)))
(let ((.def_497 (and .def_488 .def_496)))
(let ((.def_522 (and .def_497 .def_521)))
(let ((.def_483 (= .def_481 b.event_is_timed__AT2)))
(let ((.def_480 (= b.event_is_timed__AT1 .def_479)))
(let ((.def_484 (and .def_480 .def_483)))
(let ((.def_523 (and .def_484 .def_522)))
(let ((.def_630 (and .def_523 .def_629)))
(let ((.def_634 (and .def_630 .def_633)))
(let ((.def_638 (and .def_634 .def_637)))
(let ((.def_639 (and .def_367 .def_638)))
(let ((.def_657 (and .def_639 .def_656)))
(let ((.def_663 (and .def_657 .def_662)))
(let ((.def_386 (* (- 1.0) b.speed_x__AT1)))
(let ((.def_387 (* b.speed_x__AT1 .def_386)))
(let ((.def_388 (* (- 1.0) .def_387)))
(let ((.def_416 (* 2.0 .def_388)))
(let ((.def_417 (* b.delta__AT1 .def_416)))
(let ((.def_418 (* 5.0 .def_417)))
(let ((.def_399 (* b.speed_x__AT1 .def_326)))
(let ((.def_421 (* (- 5.0) .def_399)))
(let ((.def_427 (+ .def_421 .def_418)))
(let ((.def_394 (* b.x__AT1 .def_386)))
(let ((.def_419 (* (- 5.0) .def_394)))
(let ((.def_428 (+ .def_419 .def_427)))
(let ((.def_429 (+ .def_423 .def_428)))
(let ((.def_430 (+ .def_425 .def_429)))
(let ((.def_449 (<= .def_430 0.0 )))
(let ((.def_450 (not .def_449)))
(let ((.def_400 (* (- 1.0) .def_399)))
(let ((.def_395 (* (- 1.0) .def_394)))
(let ((.def_433 (+ .def_395 .def_400)))
(let ((.def_434 (+ b.speed_y__AT1 .def_433)))
(let ((.def_447 (<= .def_434 0.0 )))
(let ((.def_472 (or .def_447 .def_450)))
(let ((.def_435 (<= 0.0 .def_434)))
(let ((.def_436 (not .def_435)))
(let ((.def_431 (<= 0.0 .def_430)))
(let ((.def_471 (or .def_431 .def_436)))
(let ((.def_473 (and .def_471 .def_472)))
(let ((.def_470 (<= (- (/ 49 10)) .def_387)))
(let ((.def_474 (or .def_470 .def_473)))
(let ((.def_432 (not .def_431)))
(let ((.def_467 (or .def_432 .def_435)))
(let ((.def_448 (not .def_447)))
(let ((.def_466 (or .def_448 .def_449)))
(let ((.def_468 (and .def_466 .def_467)))
(let ((.def_465 (<= .def_387 (- (/ 49 10)))))
(let ((.def_469 (or .def_465 .def_468)))
(let ((.def_475 (and .def_469 .def_474)))
(let ((.def_462 (and .def_447 .def_449)))
(let ((.def_461 (and .def_431 .def_435)))
(let ((.def_463 (or .def_461 .def_462)))
(let ((.def_401 (* b.delta__AT1 .def_400)))
(let ((.def_402 (* 10.0 .def_401)))
(let ((.def_396 (* b.delta__AT1 .def_395)))
(let ((.def_397 (* 10.0 .def_396)))
(let ((.def_408 (+ .def_397 .def_402)))
(let ((.def_389 (* .def_385 .def_388)))
(let ((.def_390 (* 10.0 .def_389)))
(let ((.def_409 (+ .def_390 .def_408)))
(let ((.def_410 (+ .def_392 .def_409)))
(let ((.def_411 (+ .def_384 .def_410)))
(let ((.def_404 (* (- 10.0) .def_372)))
(let ((.def_412 (+ .def_404 .def_411)))
(let ((.def_413 (+ .def_406 .def_412)))
(let ((.def_441 (<= .def_413 0.0 )))
(let ((.def_455 (not .def_441)))
(let ((.def_439 (<= b.y__AT1 .def_372)))
(let ((.def_456 (or .def_439 .def_455)))
(let ((.def_373 (<= .def_372 b.y__AT1)))
(let ((.def_453 (not .def_373)))
(let ((.def_414 (<= 0.0 .def_413)))
(let ((.def_454 (or .def_414 .def_453)))
(let ((.def_457 (and .def_454 .def_456)))
(let ((.def_451 (or .def_448 .def_450)))
(let ((.def_452 (not .def_451)))
(let ((.def_458 (or .def_452 .def_457)))
(let ((.def_443 (not .def_414)))
(let ((.def_444 (or .def_373 .def_443)))
(let ((.def_440 (not .def_439)))
(let ((.def_442 (or .def_440 .def_441)))
(let ((.def_445 (and .def_442 .def_444)))
(let ((.def_437 (or .def_432 .def_436)))
(let ((.def_438 (not .def_437)))
(let ((.def_446 (or .def_438 .def_445)))
(let ((.def_459 (and .def_446 .def_458)))
(let ((.def_415 (and .def_373 .def_414)))
(let ((.def_460 (and .def_415 .def_459)))
(let ((.def_464 (and .def_460 .def_463)))
(let ((.def_476 (and .def_464 .def_475)))
(let ((.def_477 (and .def_71 .def_476)))
(let ((.def_39 (not b.counter.0__AT0)))
(let ((.def_37 (not b.counter.1__AT0)))
(let ((.def_40 (and .def_37 .def_39)))
(let ((.def_378 (or .def_40 b.counter.3__AT0)))
(let ((.def_45 (not b.counter.3__AT0)))
(let ((.def_42 (not b.counter.2__AT0)))
(let ((.def_43 (and .def_40 .def_42)))
(let ((.def_377 (or .def_43 .def_45)))
(let ((.def_379 (and .def_377 .def_378)))
(let ((.def_374 (and .def_71 .def_373)))
(let ((.def_370 (or .def_367 .def_369)))
(let ((.def_360 (or .def_272 .def_282)))
(let ((.def_364 (or b.counter.3__AT1 .def_360)))
(let ((.def_361 (or b.counter.2__AT1 .def_360)))
(let ((.def_359 (or .def_277 .def_282)))
(let ((.def_362 (and .def_359 .def_361)))
(let ((.def_363 (or .def_291 .def_362)))
(let ((.def_365 (and .def_363 .def_364)))
(let ((.def_371 (and .def_365 .def_370)))
(let ((.def_375 (and .def_371 .def_374)))
(let ((.def_354 (<= 0.0 b.delta__AT0)))
(let ((.def_58 (not b.EVENT.0__AT0)))
(let ((.def_56 (not b.EVENT.1__AT0)))
(let ((.def_180 (and .def_56 .def_58)))
(let ((.def_182 (not .def_180)))
(let ((.def_355 (or .def_182 .def_354)))
(let ((.def_356 (or b.EVENT.1__AT0 .def_355)))
(let ((.def_225 (= b.bool_atom__AT0 b.bool_atom__AT1)))
(let ((.def_220 (= b.counter.0__AT0 b.counter.0__AT1)))
(let ((.def_217 (= b.counter.1__AT0 b.counter.1__AT1)))
(let ((.def_214 (= b.counter.2__AT0 b.counter.2__AT1)))
(let ((.def_212 (= b.counter.3__AT0 b.counter.3__AT1)))
(let ((.def_215 (and .def_212 .def_214)))
(let ((.def_218 (and .def_215 .def_217)))
(let ((.def_221 (and .def_218 .def_220)))
(let ((.def_350 (and .def_221 .def_225)))
(let ((.def_351 (or .def_182 .def_350)))
(let ((.def_352 (or b.EVENT.1__AT0 .def_351)))
(let ((.def_339 (* (- 10.0) b.y__AT1)))
(let ((.def_79 (* b.delta__AT0 b.delta__AT0)))
(let ((.def_88 (* (- 49.0) .def_79)))
(let ((.def_342 (+ .def_88 .def_339)))
(let ((.def_77 (* b.speed_y__AT0 b.delta__AT0)))
(let ((.def_78 (* 10.0 .def_77)))
(let ((.def_343 (+ .def_78 .def_342)))
(let ((.def_103 (* 10.0 b.y__AT0)))
(let ((.def_344 (+ .def_103 .def_343)))
(let ((.def_345 (= .def_344 0.0 )))
(let ((.def_333 (* (- 5.0) b.speed_y__AT1)))
(let ((.def_122 (* (- 49.0) b.delta__AT0)))
(let ((.def_334 (+ .def_122 .def_333)))
(let ((.def_124 (* 5.0 b.speed_y__AT0)))
(let ((.def_335 (+ .def_124 .def_334)))
(let ((.def_336 (= .def_335 0.0 )))
(let ((.def_325 (* b.speed_x__AT0 b.delta__AT0)))
(let ((.def_329 (+ .def_326 .def_325)))
(let ((.def_330 (+ b.x__AT0 .def_329)))
(let ((.def_331 (= .def_330 0.0 )))
(let ((.def_206 (= b.speed_x__AT0 b.speed_x__AT1)))
(let ((.def_332 (and .def_206 .def_331)))
(let ((.def_337 (and .def_332 .def_336)))
(let ((.def_346 (and .def_337 .def_345)))
(let ((.def_347 (or .def_182 .def_346)))
(let ((.def_203 (= b.y__AT0 b.y__AT1)))
(let ((.def_200 (= b.x__AT0 b.x__AT1)))
(let ((.def_319 (and .def_200 .def_203)))
(let ((.def_320 (and .def_206 .def_319)))
(let ((.def_209 (= b.speed_y__AT0 b.speed_y__AT1)))
(let ((.def_321 (and .def_209 .def_320)))
(let ((.def_316 (= b.delta__AT0 0.0 )))
(let ((.def_317 (and .def_180 .def_316)))
(let ((.def_318 (not .def_317)))
(let ((.def_322 (or .def_318 .def_321)))
(let ((.def_323 (or b.EVENT.1__AT0 .def_322)))
(let ((.def_308 (and .def_206 .def_209)))
(let ((.def_309 (and .def_221 .def_308)))
(let ((.def_310 (or b.bool_atom__AT0 .def_309)))
(let ((.def_283 (or b.counter.0__AT0 .def_282)))
(let ((.def_281 (or .def_39 b.counter.0__AT1)))
(let ((.def_284 (and .def_281 .def_283)))
(let ((.def_285 (and .def_272 .def_284)))
(let ((.def_286 (or b.counter.1__AT0 .def_285)))
(let ((.def_280 (or .def_37 b.counter.1__AT1)))
(let ((.def_287 (and .def_280 .def_286)))
(let ((.def_299 (and .def_277 .def_287)))
(let ((.def_300 (or b.counter.2__AT0 .def_299)))
(let ((.def_294 (and .def_39 .def_272)))
(let ((.def_295 (or b.counter.1__AT0 .def_294)))
(let ((.def_296 (and .def_280 .def_295)))
(let ((.def_297 (and b.counter.2__AT1 .def_296)))
(let ((.def_298 (or .def_42 .def_297)))
(let ((.def_301 (and .def_298 .def_300)))
(let ((.def_302 (and b.counter.3__AT1 .def_301)))
(let ((.def_303 (or b.counter.3__AT0 .def_302)))
(let ((.def_288 (and b.counter.2__AT1 .def_287)))
(let ((.def_289 (or b.counter.2__AT0 .def_288)))
(let ((.def_275 (or b.counter.1__AT0 b.counter.1__AT1)))
(let ((.def_273 (and b.counter.0__AT1 .def_272)))
(let ((.def_274 (or .def_37 .def_273)))
(let ((.def_276 (and .def_274 .def_275)))
(let ((.def_278 (and .def_276 .def_277)))
(let ((.def_279 (or .def_42 .def_278)))
(let ((.def_290 (and .def_279 .def_289)))
(let ((.def_292 (and .def_290 .def_291)))
(let ((.def_293 (or .def_45 .def_292)))
(let ((.def_304 (and .def_293 .def_303)))
(let ((.def_263 (* b.speed_y__AT0 b.speed_y__AT0)))
(let ((.def_262 (* b.speed_x__AT0 b.speed_x__AT0)))
(let ((.def_264 (+ .def_262 .def_263)))
(let ((.def_265 (* .def_261 .def_264)))
(let ((.def_267 (* (- 1.0) .def_265)))
(let ((.def_268 (+ .def_258 .def_267)))
(let ((.def_269 (+ .def_256 .def_268)))
(let ((.def_270 (= .def_269 0.0 )))
(let ((.def_249 (* b.speed_y__AT0 .def_245)))
(let ((.def_232 (* (- 2.0) b.x__AT0)))
(let ((.def_233 (* (- 1.0) .def_232)))
(let ((.def_246 (* .def_233 .def_245)))
(let ((.def_247 (* b.speed_x__AT0 .def_246)))
(let ((.def_252 (+ .def_247 .def_249)))
(let ((.def_253 (+ .def_243 .def_252)))
(let ((.def_254 (+ b.speed_y__AT1 .def_253)))
(let ((.def_255 (= .def_254 0.0 )))
(let ((.def_271 (and .def_255 .def_270)))
(let ((.def_305 (and .def_271 .def_304)))
(let ((.def_240 (not b.bool_atom__AT0)))
(let ((.def_306 (or .def_240 .def_305)))
(let ((.def_234 (* b.speed_x__AT0 .def_233)))
(let ((.def_235 (+ b.speed_y__AT0 .def_234)))
(let ((.def_236 (<= 0.0 .def_235)))
(let ((.def_237 (not .def_236)))
(let ((.def_62 (* (- 1.0) b.x__AT0)))
(let ((.def_63 (* b.x__AT0 .def_62)))
(let ((.def_230 (= b.y__AT0 .def_63)))
(let ((.def_238 (and .def_230 .def_237)))
(let ((.def_239 (= b.bool_atom__AT0 .def_238)))
(let ((.def_307 (and .def_239 .def_306)))
(let ((.def_311 (and .def_307 .def_310)))
(let ((.def_312 (and .def_200 .def_311)))
(let ((.def_313 (and .def_203 .def_312)))
(let ((.def_314 (or .def_180 .def_313)))
(let ((.def_315 (or b.EVENT.1__AT0 .def_314)))
(let ((.def_324 (and .def_315 .def_323)))
(let ((.def_348 (and .def_324 .def_347)))
(let ((.def_187 (= b.time__AT0 b.time__AT1)))
(let ((.def_201 (and .def_187 .def_200)))
(let ((.def_204 (and .def_201 .def_203)))
(let ((.def_207 (and .def_204 .def_206)))
(let ((.def_210 (and .def_207 .def_209)))
(let ((.def_222 (and .def_210 .def_221)))
(let ((.def_226 (and .def_222 .def_225)))
(let ((.def_227 (or .def_56 .def_226)))
(let ((.def_190 (* (- 1.0) b.time__AT1)))
(let ((.def_193 (+ b.delta__AT0 .def_190)))
(let ((.def_194 (+ b.time__AT0 .def_193)))
(let ((.def_195 (= .def_194 0.0 )))
(let ((.def_196 (or .def_182 .def_195)))
(let ((.def_197 (or b.EVENT.1__AT0 .def_196)))
(let ((.def_188 (or .def_180 .def_187)))
(let ((.def_189 (or b.EVENT.1__AT0 .def_188)))
(let ((.def_198 (and .def_189 .def_197)))
(let ((.def_228 (and .def_198 .def_227)))
(let ((.def_184 (= .def_182 b.event_is_timed__AT1)))
(let ((.def_181 (= b.event_is_timed__AT0 .def_180)))
(let ((.def_185 (and .def_181 .def_184)))
(let ((.def_229 (and .def_185 .def_228)))
(let ((.def_349 (and .def_229 .def_348)))
(let ((.def_353 (and .def_349 .def_352)))
(let ((.def_357 (and .def_353 .def_356)))
(let ((.def_358 (and .def_56 .def_357)))
(let ((.def_376 (and .def_358 .def_375)))
(let ((.def_380 (and .def_376 .def_379)))
(let ((.def_80 (* (- 1.0) b.speed_x__AT0)))
(let ((.def_81 (* b.speed_x__AT0 .def_80)))
(let ((.def_82 (* (- 1.0) .def_81)))
(let ((.def_113 (* 2.0 .def_82)))
(let ((.def_114 (* b.delta__AT0 .def_113)))
(let ((.def_116 (* 5.0 .def_114)))
(let ((.def_95 (* b.speed_x__AT0 .def_62)))
(let ((.def_120 (* (- 5.0) .def_95)))
(let ((.def_126 (+ .def_120 .def_116)))
(let ((.def_90 (* b.x__AT0 .def_80)))
(let ((.def_118 (* (- 5.0) .def_90)))
(let ((.def_127 (+ .def_118 .def_126)))
(let ((.def_128 (+ .def_122 .def_127)))
(let ((.def_129 (+ .def_124 .def_128)))
(let ((.def_148 (<= .def_129 0.0 )))
(let ((.def_149 (not .def_148)))
(let ((.def_96 (* (- 1.0) .def_95)))
(let ((.def_91 (* (- 1.0) .def_90)))
(let ((.def_132 (+ .def_91 .def_96)))
(let ((.def_133 (+ b.speed_y__AT0 .def_132)))
(let ((.def_146 (<= .def_133 0.0 )))
(let ((.def_173 (or .def_146 .def_149)))
(let ((.def_134 (<= 0.0 .def_133)))
(let ((.def_135 (not .def_134)))
(let ((.def_130 (<= 0.0 .def_129)))
(let ((.def_172 (or .def_130 .def_135)))
(let ((.def_174 (and .def_172 .def_173)))
(let ((.def_171 (<= (- (/ 49 10)) .def_81)))
(let ((.def_175 (or .def_171 .def_174)))
(let ((.def_131 (not .def_130)))
(let ((.def_168 (or .def_131 .def_134)))
(let ((.def_147 (not .def_146)))
(let ((.def_167 (or .def_147 .def_148)))
(let ((.def_169 (and .def_167 .def_168)))
(let ((.def_166 (<= .def_81 (- (/ 49 10)))))
(let ((.def_170 (or .def_166 .def_169)))
(let ((.def_176 (and .def_170 .def_175)))
(let ((.def_161 (and .def_146 .def_148)))
(let ((.def_160 (and .def_130 .def_134)))
(let ((.def_162 (or .def_160 .def_161)))
(let ((.def_97 (* b.delta__AT0 .def_96)))
(let ((.def_98 (* 10.0 .def_97)))
(let ((.def_92 (* b.delta__AT0 .def_91)))
(let ((.def_93 (* 10.0 .def_92)))
(let ((.def_105 (+ .def_93 .def_98)))
(let ((.def_83 (* .def_79 .def_82)))
(let ((.def_84 (* 10.0 .def_83)))
(let ((.def_106 (+ .def_84 .def_105)))
(let ((.def_107 (+ .def_88 .def_106)))
(let ((.def_108 (+ .def_78 .def_107)))
(let ((.def_101 (* (- 10.0) .def_63)))
(let ((.def_109 (+ .def_101 .def_108)))
(let ((.def_110 (+ .def_103 .def_109)))
(let ((.def_140 (<= .def_110 0.0 )))
(let ((.def_154 (not .def_140)))
(let ((.def_138 (<= b.y__AT0 .def_63)))
(let ((.def_155 (or .def_138 .def_154)))
(let ((.def_64 (<= .def_63 b.y__AT0)))
(let ((.def_152 (not .def_64)))
(let ((.def_111 (<= 0.0 .def_110)))
(let ((.def_153 (or .def_111 .def_152)))
(let ((.def_156 (and .def_153 .def_155)))
(let ((.def_150 (or .def_147 .def_149)))
(let ((.def_151 (not .def_150)))
(let ((.def_157 (or .def_151 .def_156)))
(let ((.def_142 (not .def_111)))
(let ((.def_143 (or .def_64 .def_142)))
(let ((.def_139 (not .def_138)))
(let ((.def_141 (or .def_139 .def_140)))
(let ((.def_144 (and .def_141 .def_143)))
(let ((.def_136 (or .def_131 .def_135)))
(let ((.def_137 (not .def_136)))
(let ((.def_145 (or .def_137 .def_144)))
(let ((.def_158 (and .def_145 .def_157)))
(let ((.def_112 (and .def_64 .def_111)))
(let ((.def_159 (and .def_112 .def_158)))
(let ((.def_163 (and .def_159 .def_162)))
(let ((.def_177 (and .def_163 .def_176)))
(let ((.def_178 (and .def_71 .def_177)))
(let ((.def_72 (and .def_64 .def_71)))
(let ((.def_59 (or .def_56 .def_58)))
(let ((.def_49 (or .def_37 .def_39)))
(let ((.def_53 (or b.counter.3__AT0 .def_49)))
(let ((.def_50 (or b.counter.2__AT0 .def_49)))
(let ((.def_48 (or .def_39 .def_42)))
(let ((.def_51 (and .def_48 .def_50)))
(let ((.def_52 (or .def_45 .def_51)))
(let ((.def_54 (and .def_52 .def_53)))
(let ((.def_60 (and .def_54 .def_59)))
(let ((.def_73 (and .def_60 .def_72)))
(let ((.def_46 (and .def_43 .def_45)))
(let ((.def_34 (= b.speed_y__AT0 1.0 )))
(let ((.def_31 (= b.speed_x__AT0 1.0 )))
(let ((.def_27 (= b.y__AT0 10.0 )))
(let ((.def_23 (= b.x__AT0 0.0 )))
(let ((.def_19 (= b.time__AT0 0.0 )))
(let ((.def_21 (and .def_19 b.event_is_timed__AT0)))
(let ((.def_24 (and .def_21 .def_23)))
(let ((.def_28 (and .def_24 .def_27)))
(let ((.def_32 (and .def_28 .def_31)))
(let ((.def_35 (and .def_32 .def_34)))
(let ((.def_47 (and .def_35 .def_46)))
(let ((.def_74 (and .def_47 .def_73)))
(let ((.def_7 (and .def_4 .def_6)))
(let ((.def_14 (or .def_7 b.counter.3__AT2)))
(let ((.def_10 (and .def_7 .def_9)))
(let ((.def_13 (or .def_10 .def_12)))
(let ((.def_15 (and .def_13 .def_14)))
(let ((.def_16 (not .def_15)))
(let ((.def_75 (and .def_16 .def_74)))
(let ((.def_179 (and .def_75 .def_178)))
(let ((.def_381 (and .def_179 .def_380)))
(let ((.def_478 (and .def_381 .def_477)))
(let ((.def_664 (and .def_478 .def_663)))
(let ((.def_761 (and .def_664 .def_760)))
.def_761))))))))))))))))))))))))))))))))))))))))))))))))))))))))))))))))))))))))))))))))))))))))))))))))))))))))))))))))))))))))))))))))))))))))))))))))))))))))))))))))))))))))))))))))))))))))))))))))))))))))))))))))))))))))))))))))))))))))))))))))))))))))))))))))))))))))))))))))))))))))))))))))))))))))))))))))))))))))))))))))))))))))))))))))))))))))))))))))))))))))))))))))))))))))))))))))))))))))))))))))))))))))))))))))))))))))))))))))))))))))))))))))))))))))))))))))))))))))))))))))))))))))))))))))))))))))))))))))))))))))))))))))))))))))))))))))))))))))))))))))))))))))))))))))))))))))))))))))))))))))))))))))))))))))))))))))))))))))))))))))))))
(check-sat)
(exit)
